c colouring generated by benchmark framework
p edge 121 1980
v 1 1
v 2 8
v 3 13
v 4 11
v 5 6
v 6 4
v 7 7
v 8 5
v 9 12
v 10 10
v 11 9
v 12 7
v 13 3
v 14 6
v 15 4
v 16 2
v 17 11
v 18 9
v 19 10
v 20 1
v 21 0
v 22 5
v 23 10
v 24 5
v 25 2
v 26 1
v 27 0
v 28 7
v 29 8
v 30 3
v 31 6
v 32 12
v 33 4
v 34 8
v 35 9
v 36 11
v 37 5
v 38 3
v 39 6
v 40 4
v 41 7
v 42 2
v 43 1
v 44 0
v 45 13
v 46 7
v 47 3
v 48 6
v 49 9
v 50 2
v 51 5
v 52 1
v 53 10
v 54 8
v 55 11
v 56 6
v 57 4
v 58 1
v 59 2
v 60 12
v 61 8
v 62 0
v 63 9
v 64 3
v 65 13
v 66 7
v 67 2
v 68 10
v 69 5
v 70 0
v 71 1
v 72 3
v 73 11
v 74 4
v 75 7
v 76 6
v 77 12
v 78 0
v 79 11
v 80 7
v 81 3
v 82 4
v 83 5
v 84 1
v 85 6
v 86 9
v 87 2
v 88 8
v 89 3
v 90 6
v 91 4
v 92 9
v 93 7
v 94 10
v 95 12
v 96 2
v 97 13
v 98 5
v 99 1
v 100 5
v 101 2
v 102 10
v 103 12
v 104 11
v 105 9
v 106 3
v 107 8
v 108 0
v 109 7
v 110 13
v 111 11
v 112 13
v 113 8
v 114 7
v 115 5
v 116 0
v 117 6
v 118 12
v 119 4
v 120 9
v 121 10
